interdiction/MCDM/NO_CORR/GEN_FROM_60/13_ITEMS_1000_GEN/K5013W14.KNP.mps
NAME          BLANK   
ROWS
 N  OBJROW
 L  R0000000
COLUMNS
    C0000000  OBJROW     -52.          R0000000  904.        
    C0000001  OBJROW     -669.         R0000000  73.         
    C0000002  OBJROW     -236.         R0000000  881.        
    C0000003  OBJROW     -531.         R0000000  147.        
    C0000004  OBJROW     -528.         R0000000  91.         
    C0000005  OBJROW     -505.         R0000000  316.        
    C0000006  OBJROW     -331.         R0000000  944.        
    C0000007  OBJROW     -712.         R0000000  565.        
    C0000008  OBJROW     -709.         R0000000  423.        
    C0000009  OBJROW     -926.         R0000000  917.        
    C0000010  OBJROW     -460.         R0000000  702.        
    C0000011  OBJROW     -637.         R0000000  150.        
    C0000012  OBJROW     -448.         R0000000  382.        
RHS
    RHS       R0000000  14110.      
BOUNDS
 BV BOUND     C0000000  1.          
 BV BOUND     C0000001  1.          
 BV BOUND     C0000002  1.          
 BV BOUND     C0000003  1.          
 BV BOUND     C0000004  1.          
 BV BOUND     C0000005  1.          
 BV BOUND     C0000006  1.          
 BV BOUND     C0000007  1.          
 BV BOUND     C0000008  1.          
 BV BOUND     C0000009  1.          
 BV BOUND     C0000010  1.          
 BV BOUND     C0000011  1.          
 BV BOUND     C0000012  1.          
ENDATA
