interdiction/MCDM/NO_CORR/GEN_FROM_60/13_ITEMS_1000_GEN/K5013W14.KNP.txt
N 13
M 14
LC 13
LC 14
LC 15
LC 16
LC 17
LC 18
LC 19
LC 20
LC 21
LC 22
LC 23
LC 24
LC 25
LR 1
LR 2
LR 3
LR 4
LR 5
LR 6
LR 7
LR 8
LR 9
LR 10
LR 11
LR 12
LR 13
LR 14
LO -52
LO -669
LO -236
LO -531
LO -528
LO -505
LO -331
LO -712
LO -709
LO -926
LO -460
LO -637
LO -448
OS 1
IC 849
IC 854
IC 147
IC 320
IC 877
IC 635
IC 118
IC 302
IC 967
IC 959
IC 622
IC 352
IC 441
IB 3722
